HUN,8,6,441
1,57,2,70,5,57,3,75,0,69,4,11
1,35,2,9,5,65,4,31,3,77,0,57
4,97,5,13,0,51,3,16,1,52,2,64
0,30,4,56,1,3,3,74,5,81,2,29
2,49,4,30,1,54,0,61,3,26,5,42
5,14,4,29,3,75,1,30,2,38,0,8
3,77,2,73,4,49,0,95,1,76,5,65
4,82,0,58,5,78,1,65,2,27,3,30
